c
p cnf 100 160
16 30 95 0
-16 30 95 0
-30 35 78 0
-30 -78 85 0
-78 -85 95 0
8 55 100 0
8 55 -95 0
9 52 100 0
9 73 -100 0
-8 -9 52 0
38 66 83 0
-38 83 87 0
-52 83 -87 0
66 74 -83 0
-52 -66 89 0
-52 73 -89 0
-52 73 -74 0
-8 -73 -95 0
40 -55 90 0
-40 -55 90 0
25 35 82 0
-25 82 -90 0
-55 -82 -90 0
11 75 84 0
11 -75 96 0
23 -75 -96 0
-11 23 -35 0
-23 29 65 0
29 -35 -65 0
-23 -29 84 0
-35 54 70 0
-54 70 77 0
19 -77 -84 0
-19 -54 70 0
22 68 81 0
-22 48 81 0
-22 -48 93 0
3 -48 -93 0
7 18 -81 0